-3.43 -38.3
14.55 -23.31
19.37 37.14
15.36 32.32
13.11 30.13
13.38 25.21
15.2 38.53
9.0 38.5
11.36 43.09
18.06 -15.57
14.4 -17.26
13.28 -16.39
11.51 -15.35
16.46 -3.01
12.39 -8.0
10.23 -9.18
9.31 -13.43
8.3 -13.15
6.18 -10.47
5.19 -4.02
6.41 -1.35
5.33 -0.13
6.08 1.13
6.29 2.37
12.22 -1.31
13.31 2.07
12.0 8.3
11.51 13.1
12.07 15.03
6.27 3.24
6.27 7.27
0.2 6.44
3.45 8.47
3.52 11.31
4.22 18.35
0.23 9.27
-4.16 15.17
0.04 18.16
0.3 25.12
-3.23 29.22
-1.57 30.04
0.19 32.25
-1.17 36.49
2.01 45.2
-4.03 39.4
15.23 44.12
14.48 42.57
12.45 45.12
14.32 49.08
18.58 72.5
